c This Formular is generated by mcnf
c
c    horn? no 
c    forced? no 
c    mixed sat? no 
c    clause length = 3 
c
p cnf 20  91 
 -8 14 -2 0
16 -7 18 0
8 -4 -18 0
6 9 -4 0
-4 7 19 0
3 11 -14 0
-20 1 -2 0
-20 -9 -18 0
-15 2 20 0
11 10 -16 0
-10 -9 -4 0
13 -14 -20 0
9 -3 11 0
1 20 19 0
15 6 18 0
10 13 -3 0
-19 -7 -5 0
-16 -10 -19 0
-14 12 17 0
-13 6 3 0
3 2 20 0
%
0

97 97 96 58 74 93 65 47 86 26 82 31 91 30 51 62 79 30 1 89
